161 5
10 10 10 10 10 

0 0 0 0 0 0 5 2 14 36 58 80 
0 0 0 0 0 0 3 3 4 5 
8 0 0 1 0 0 3 8 7 6 
2 0 0 7 0 0 3 8 7 6 
5 0 0 5 0 0 2 8 7 
3 0 0 7 0 0 2 12 9 
2 0 0 3 0 0 1 9 
1 0 0 3 0 0 2 12 11 
7 0 0 4 0 0 1 10 
6 0 0 10 0 0 1 11 
9 0 0 4 0 0 1 13 
3 0 0 6 0 0 1 13 
0 0 0 0 0 0 2 102 114 
0 0 0 0 0 0 2 15 34 
6 0 4 0 0 1 1 16 
7 0 2 0 0 5 2 20 17 
1 0 4 0 0 1 1 18 
10 0 7 0 0 5 2 27 19 
7 0 6 0 0 5 4 32 26 23 21 
7 0 2 0 0 8 3 32 26 22 
9 0 10 0 0 5 1 22 
8 0 4 0 0 4 2 31 24 
9 0 5 0 0 8 2 31 24 
8 0 4 0 0 6 3 30 29 25 
8 0 7 0 0 5 1 28 
10 0 3 0 0 5 1 28 
3 0 6 0 0 6 1 33 
4 0 6 0 0 7 1 35 
1 0 4 0 0 5 1 35 
5 0 10 0 0 5 1 35 
4 0 4 0 0 5 1 35 
9 0 5 0 0 6 1 35 
7 0 3 0 0 4 1 35 
10 0 4 0 0 4 1 35 
0 0 0 0 0 0 1 126 
0 0 0 0 0 0 2 37 39 
2 2 0 0 0 2 2 43 38 
4 3 0 0 0 3 1 40 
8 5 0 0 0 10 1 40 
6 5 0 0 0 5 3 45 42 41 
2 6 0 0 0 8 2 47 44 
7 10 0 0 0 4 3 49 48 47 
3 3 0 0 0 2 3 49 46 45 
8 8 0 0 0 4 3 56 48 46 
10 3 0 0 0 4 3 55 54 51 
10 5 0 0 0 7 2 54 50 
6 4 0 0 0 3 2 54 50 
5 5 0 0 0 5 3 55 54 53 
1 3 0 0 0 4 3 56 54 53 
9 6 0 0 0 4 1 51 
2 4 0 0 0 3 1 52 
6 4 0 0 0 8 1 53 
7 4 0 0 0 8 1 57 
5 7 0 0 0 5 1 57 
6 9 0 0 0 6 1 57 
10 4 0 0 0 5 1 57 
0 0 0 0 0 0 1 126 
0 0 0 0 0 0 3 59 62 65 
9 1 0 0 2 0 2 67 60 
2 8 0 0 4 0 2 72 61 
1 6 0 0 7 0 2 68 63 
9 5 0 0 5 0 4 76 73 68 67 
4 2 0 0 6 0 1 64 
6 7 0 0 4 0 3 76 75 66 
3 4 0 0 5 0 3 75 67 66 
3 8 0 0 4 0 3 78 71 69 
5 7 0 0 5 0 2 78 71 
7 5 0 0 5 0 1 69 
2 5 0 0 5 0 1 70 
2 5 0 0 6 0 1 74 
10 4 0 0 5 0 1 74 
5 4 0 0 10 0 1 75 
10 6 0 0 7 0 1 75 
5 8 0 0 5 0 1 77 
7 6 0 0 2 0 1 77 
9 4 0 0 5 0 1 78 
4 3 0 0 4 0 1 79 
9 2 0 0 4 0 1 79 
0 0 0 0 0 0 1 126 
0 0 0 0 0 0 4 81 84 88 100 
2 0 0 1 0 1 2 94 82 
3 0 0 9 0 5 2 99 83 
5 0 0 8 0 3 4 98 93 91 85 
5 0 0 3 0 8 5 98 97 94 93 90 
4 0 0 4 0 6 2 97 86 
7 0 0 4 0 10 1 87 
10 0 0 5 0 8 2 96 89 
6 0 0 9 0 4 2 97 90 
1 0 0 8 0 3 1 90 
7 0 0 4 0 4 1 92 
3 0 0 3 0 5 1 92 
10 0 0 7 0 7 1 95 
8 0 0 3 0 7 1 96 
6 0 0 4 0 3 1 95 
5 0 0 2 0 1 1 101 
9 0 0 4 0 7 1 101 
7 0 0 6 0 3 1 101 
6 0 0 4 0 6 1 101 
7 0 0 6 0 6 1 101 
8 0 0 6 0 3 1 101 
0 0 0 0 0 0 1 126 
0 0 0 0 0 0 3 103 105 106 
7 1 0 0 0 0 2 107 104 
1 4 0 0 0 0 3 112 110 108 
6 6 0 0 0 0 1 107 
9 5 0 0 0 0 1 107 
5 3 0 0 0 0 2 112 111 
7 9 0 0 0 0 1 109 
5 2 0 0 0 0 1 111 
7 4 0 0 0 0 1 111 
6 10 0 0 0 0 1 113 
9 6 0 0 0 0 1 113 
0 0 0 0 0 0 1 126 
0 0 0 0 0 0 3 115 116 120 
7 1 0 0 0 0 3 121 119 118 
2 5 0 0 0 0 1 117 
3 2 0 0 0 0 1 118 
3 6 0 0 0 0 2 124 122 
7 4 0 0 0 0 2 124 122 
4 7 0 0 0 0 2 124 122 
1 8 0 0 0 0 1 122 
8 3 0 0 0 0 1 123 
7 6 0 0 0 0 1 125 
1 8 0 0 0 0 1 125 
0 0 0 0 0 0 1 126 
0 0 0 0 0 0 5 127 130 134 135 136 
5 0 1 0 0 0 2 133 128 
4 0 4 0 0 0 1 129 
9 0 7 0 0 0 1 131 
3 0 6 0 0 0 1 131 
9 0 3 0 0 0 1 132 
5 0 5 0 0 0 1 137 
1 0 3 0 0 0 1 137 
7 0 9 0 0 0 1 137 
5 0 6 0 0 0 1 137 
3 0 6 0 0 0 1 137 
0 0 0 0 0 0 1 138 
0 0 0 0 0 0 3 139 143 148 
7 0 0 0 0 1 2 142 140 
1 0 0 0 0 6 1 141 
4 0 0 0 0 3 3 147 146 144 
8 0 0 0 0 8 3 147 146 144 
10 0 0 0 0 5 2 146 145 
1 0 0 0 0 3 1 145 
1 0 0 0 0 4 1 149 
9 0 0 0 0 5 1 149 
9 0 0 0 0 8 1 149 
5 0 0 0 0 7 1 149 
0 0 0 0 0 0 1 150 
0 0 0 0 0 0 6 151 156 157 158 159 160 
6 0 0 0 0 1 1 152 
2 0 0 0 0 3 1 153 
3 0 0 0 0 3 1 154 
8 0 0 0 0 3 1 155 
10 0 0 0 0 5 1 161 
1 0 0 0 0 9 1 161 
9 0 0 0 0 9 1 161 
8 0 0 0 0 6 1 161 
3 0 0 0 0 5 1 161 
2 0 0 0 0 6 1 161 
0 0 0 0 0 0 0 
